NAME : 20.81049.tour
COMMENT : Length = 81049
COMMENT : Found by LKH-3 [Keld Helsgaun] Thu Jun 19 18:16:32 2025
TYPE : TOUR
DIMENSION : 100
TOUR_SECTION
1
71
14
8
41
66
93
12
35
42
91
21
27
34
87
25
100
40
63
92
55
57
67
29
53
88
10
81
17
86
50
76
15
68
96
30
82
60
7
62
5
80
48
70
32
56
18
78
47
13
94
46
49
11
19
79
38
52
58
44
64
31
23
2
45
36
95
28
6
51
69
4
61
99
16
98
59
89
24
22
37
84
72
26
9
73
33
54
74
97
43
85
3
65
90
75
39
83
20
77
-1
EOF
